DATASET = "thpack6";
INSTANCE = "026";

WIDTH = 233;
HEIGHT = 220;
LENGTH = 587;

NO_OF_SHAPES = 15;
size = [|
  86,71,41 |
  75,58,58 |
  100,81,27 |
  59,42,24 |
  69,37,30 |
  63,50,36 |
  96,72,34 |
  111,71,29 |
  102,67,53 |
  71,34,32 |
  88,75,53 |
  50,46,42 |
  84,70,41 |
  98,48,44 |
  54,43,25 |
|];

verticality = [|
  0,1,1 |
  1,1,1 |
  0,0,1 |
  0,1,1 |
  0,1,1 |
  1,1,1 |
  0,0,1 |
  0,0,1 |
  1,1,1 |
  0,1,1 |
  1,1,1 |
  1,1,1 |
  0,1,1 |
  0,1,1 |
  0,1,1 |
|];

box_count = [
  14,
  13,
  13,
  10,
  9,
  13,
  12,
  10,
  6,
  13,
  8,
  10,
  11,
  11,
  12,
];
